single_objective/SL-DABL/OP/problems/op/OPLib-master/instances/gen3/a280-gen3-50.oplib
NAME : a280
COMMENT : drilling problem (Ludwig)
TYPE : OP
DIMENSION: 280
COST_LIMIT : 1290
EDGE_WEIGHT_TYPE : EUC_2D
NODE_COORD_SECTION
1 288 149
2 288 129
3 270 133
4 256 141
5 256 157
6 246 157
7 236 169
8 228 169
9 228 161
10 220 169
11 212 169
12 204 169
13 196 169
14 188 169
15 196 161
16 188 145
17 172 145
18 164 145
19 156 145
20 148 145
21 140 145
22 148 169
23 164 169
24 172 169
25 156 169
26 140 169
27 132 169
28 124 169
29 116 161
30 104 153
31 104 161
32 104 169
33 90 165
34 80 157
35 64 157
36 64 165
37 56 169
38 56 161
39 56 153
40 56 145
41 56 137
42 56 129
43 56 121
44 40 121
45 40 129
46 40 137
47 40 145
48 40 153
49 40 161
50 40 169
51 32 169
52 32 161
53 32 153
54 32 145
55 32 137
56 32 129
57 32 121
58 32 113
59 40 113
60 56 113
61 56 105
62 48 99
63 40 99
64 32 97
65 32 89
66 24 89
67 16 97
68 16 109
69 8 109
70 8 97
71 8 89
72 8 81
73 8 73
74 8 65
75 8 57
76 16 57
77 8 49
78 8 41
79 24 45
80 32 41
81 32 49
82 32 57
83 32 65
84 32 73
85 32 81
86 40 83
87 40 73
88 40 63
89 40 51
90 44 43
91 44 35
92 44 27
93 32 25
94 24 25
95 16 25
96 16 17
97 24 17
98 32 17
99 44 11
100 56 9
101 56 17
102 56 25
103 56 33
104 56 41
105 64 41
106 72 41
107 72 49
108 56 49
109 48 51
110 56 57
111 56 65
112 48 63
113 48 73
114 56 73
115 56 81
116 48 83
117 56 89
118 56 97
119 104 97
120 104 105
121 104 113
122 104 121
123 104 129
124 104 137
125 104 145
126 116 145
127 124 145
128 132 145
129 132 137
130 140 137
131 148 137
132 156 137
133 164 137
134 172 125
135 172 117
136 172 109
137 172 101
138 172 93
139 172 85
140 180 85
141 180 77
142 180 69
143 180 61
144 180 53
145 172 53
146 172 61
147 172 69
148 172 77
149 164 81
150 148 85
151 124 85
152 124 93
153 124 109
154 124 125
155 124 117
156 124 101
157 104 89
158 104 81
159 104 73
160 104 65
161 104 49
162 104 41
163 104 33
164 104 25
165 104 17
166 92 9
167 80 9
168 72 9
169 64 21
170 72 25
171 80 25
172 80 25
173 80 41
174 88 49
175 104 57
176 124 69
177 124 77
178 132 81
179 140 65
180 132 61
181 124 61
182 124 53
183 124 45
184 124 37
185 124 29
186 132 21
187 124 21
188 120 9
189 128 9
190 136 9
191 148 9
192 162 9
193 156 25
194 172 21
195 180 21
196 180 29
197 172 29
198 172 37
199 172 45
200 180 45
201 180 37
202 188 41
203 196 49
204 204 57
205 212 65
206 220 73
207 228 69
208 228 77
209 236 77
210 236 69
211 236 61
212 228 61
213 228 53
214 236 53
215 236 45
216 228 45
217 228 37
218 236 37
219 236 29
220 228 29
221 228 21
222 236 21
223 252 21
224 260 29
225 260 37
226 260 45
227 260 53
228 260 61
229 260 69
230 260 77
231 276 77
232 276 69
233 276 61
234 276 53
235 284 53
236 284 61
237 284 69
238 284 77
239 284 85
240 284 93
241 284 101
242 288 109
243 280 109
244 276 101
245 276 93
246 276 85
247 268 97
248 260 109
249 252 101
250 260 93
251 260 85
252 236 85
253 228 85
254 228 93
255 236 93
256 236 101
257 228 101
258 228 109
259 228 117
260 228 125
261 220 125
262 212 117
263 204 109
264 196 101
265 188 93
266 180 93
267 180 101
268 180 109
269 180 117
270 180 125
271 196 145
272 204 145
273 212 145
274 220 145
275 228 145
276 236 145
277 246 141
278 252 125
279 260 129
280 280 133
NODE_SCORE_SECTION
1 0
2 7
3 8
4 11
5 11
6 15
7 19
8 21
9 20
10 24
11 26
12 29
13 31
14 34
15 31
16 33
17 39
18 41
19 44
20 46
21 49
22 47
23 42
24 39
25 44
26 49
27 52
28 55
29 57
30 61
31 61
32 61
33 66
34 69
35 74
36 74
37 77
38 77
39 77
40 77
41 77
42 77
43 77
44 82
45 82
46 82
47 82
48 82
49 82
50 82
51 85
52 84
53 84
54 84
55 84
56 85
57 85
58 85
59 83
60 78
61 78
62 81
63 83
64 86
65 87
66 89
67 91
68 91
69 93
70 94
71 94
72 95
73 96
74 96
75 97
76 95
77 98
78 99
79 94
80 92
81 91
82 90
83 89
84 88
85 87
86 85
87 85
88 86
89 88
90 88
91 89
92 90
93 94
94 96
95 99
96 100
97 97
98 95
99 92
100 89
101 88
102 87
103 85
104 84
105 82
106 80
107 79
108 83
109 85
110 82
111 81
112 84
113 83
114 80
115 80
116 82
117 79
118 79
119 63
120 62
121 62
122 61
123 61
124 61
125 61
126 57
127 54
128 52
129 52
130 49
131 47
132 44
133 41
134 39
135 40
136 41
137 42
138 43
139 44
140 42
141 43
142 44
143 46
144 48
145 50
146 48
147 47
148 45
149 47
150 51
151 58
152 57
153 56
154 55
155 55
156 57
157 64
158 65
159 66
160 67
161 69
162 70
163 72
164 73
165 75
166 80
167 83
168 85
169 85
170 82
171 80
172 80
173 77
174 74
175 68
176 60
177 59
178 56
179 56
180 59
181 61
182 63
183 64
184 66
185 67
186 67
187 69
188 72
189 70
190 68
191 65
192 62
193 60
194 57
195 55
196 53
197 55
198 53
199 52
200 50
201 52
202 49
203 45
204 41
205 38
206 34
207 33
208 31
209 30
210 32
211 34
212 36
213 38
214 36
215 39
216 40
217 42
218 41
219 43
220 44
221 47
222 46
223 44
224 41
225 38
226 36
227 33
228 31
229 28
230 26
231 24
232 27
233 30
234 32
235 32
236 29
237 27
238 24
239 21
240 19
241 16
242 14
243 14
244 17
245 19
246 22
247 19
248 17
249 20
250 21
251 23
252 27
253 29
254 27
255 25
256 24
257 26
258 24
259 23
260 22
261 24
262 27
263 31
264 35
265 38
266 40
267 39
268 38
269 38
270 37
271 31
272 28
273 25
274 23
275 20
276 18
277 15
278 15
279 12
280 6
DEPOT_SECTION
1
-1
EOF
