single_objective/SL-DABL/OP/problems/op/OPLib-master/solutions/ea4op/gen3/a280-gen3-50.sol
NAME : a280
TYPE : OP
DIMENSION : 280
COST_LIMIT : 1290
ROUTE_NODES : 131
ROUTE_SCORE : 8684
ROUTE_COST : 1290
NODE_SEQUENCE_SECTION
1
280
243
242
241
240
239
238
237
236
235
234
233
232
231
246
245
244
247
250
251
230
229
228
227
226
225
224
223
222
219
220
217
216
213
214
211
210
207
208
206
205
204
203
202
201
196
195
194
193
186
187
165
172
171
170
169
101
100
99
98
93
94
97
96
95
78
77
75
74
73
72
71
70
67
68
58
57
56
55
46
47
54
53
52
51
50
38
39
40
41
42
43
60
61
62
63
64
65
85
84
83
82
81
89
109
108
104
105
106
173
174
175
160
159
177
178
150
149
148
139
138
266
265
264
263
262
261
260
278
279
-1
DEPOT_SECTION
1
-1
EOF
